p edge 319
e 0 6
e 0 13
e 0 25
e 0 26
e 0 28
e 0 35
e 0 77
e 0 105
e 0 150
e 0 289
e 1 2
e 1 19
e 1 21
e 2 19
e 2 20
e 2 21
e 2 22
e 3 88
e 3 296
e 3 297
e 3 298
e 4 5
e 4 79
e 4 207
e 4 292
e 4 298
e 5 91
e 5 206
e 5 207
e 5 298
e 6 13
e 6 78
e 6 197
e 6 201
e 6 259
e 6 264
e 6 275
e 6 289
e 7 23
e 7 31
e 7 107
e 7 240
e 7 277
e 7 278
e 8 99
e 8 272
e 8 273
e 8 274
e 8 279
e 8 281
e 9 12
e 9 17
e 9 18
e 10 12
e 10 17
e 10 18
e 10 24
e 11 17
e 11 247
e 11 248
e 12 17
e 13 14
e 13 15
e 13 16
e 13 28
e 13 201
e 14 16
e 14 28
e 15 16
e 15 28
e 16 28
e 17 18
e 17 24
e 17 33
e 17 34
e 17 75
e 17 106
e 17 203
e 17 205
e 17 207
e 17 247
e 17 248
e 18 24
e 18 247
e 19 20
e 19 21
e 20 21
e 20 22
e 20 67
e 20 73
e 20 99
e 20 178
e 20 215
e 20 281
e 20 282
e 21 22
e 23 240
e 23 276
e 23 277
e 24 248
e 25 26
e 27 56
e 27 82
e 27 83
e 27 115
e 27 224
e 27 225
e 27 291
e 28 31
e 28 73
e 28 150
e 29 30
e 29 264
e 29 267
e 29 269
e 30 183
e 30 204
e 30 264
e 31 73
e 31 107
e 31 108
e 31 179
e 32 34
e 33 34
e 33 98
e 33 106
e 33 202
e 33 214
e 34 202
e 34 203
e 35 105
e 35 222
e 35 226
e 35 289
e 36 38
e 36 41
e 36 47
e 36 49
e 36 54
e 36 159
e 36 161
e 36 305
e 37 43
e 37 44
e 37 48
e 37 54
e 37 55
e 37 309
e 38 40
e 38 47
e 38 65
e 38 70
e 38 305
e 39 43
e 39 254
e 40 45
e 40 47
e 40 65
e 40 66
e 40 254
e 41 159
e 41 162
e 41 163
e 41 305
e 42 65
e 42 70
e 42 160
e 42 305
e 43 48
e 43 157
e 43 162
e 43 254
e 43 309
e 44 46
e 44 48
e 44 49
e 44 54
e 44 195
e 45 65
e 45 157
e 45 158
e 45 164
e 45 254
e 45 308
e 46 47
e 46 49
e 46 66
e 47 49
e 47 66
e 48 195
e 50 51
e 50 52
e 50 53
e 50 176
e 51 53
e 51 176
e 51 228
e 52 53
e 53 176
e 53 196
e 53 228
e 53 310
e 53 312
e 54 55
e 54 159
e 54 161
e 54 162
e 55 162
e 55 231
e 55 309
e 56 78
e 56 188
e 56 225
e 56 291
e 57 59
e 57 62
e 57 63
e 57 151
e 57 153
e 57 154
e 57 155
e 57 213
e 58 151
e 58 212
e 58 213
e 59 152
e 59 155
e 59 213
e 60 61
e 60 166
e 60 226
e 60 236
e 61 226
e 61 232
e 61 236
e 61 270
e 62 63
e 62 106
e 62 153
e 62 208
e 62 209
e 62 214
e 63 131
e 63 132
e 63 151
e 63 209
e 63 212
e 64 264
e 64 265
e 65 70
e 65 160
e 65 164
e 66 195
e 66 254
e 67 99
e 67 178
e 68 103
e 68 191
e 68 216
e 68 220
e 68 221
e 69 97
e 69 98
e 69 165
e 69 166
e 69 189
e 69 218
e 70 305
e 71 86
e 71 87
e 71 115
e 71 125
e 71 147
e 71 310
e 71 315
e 72 86
e 72 114
e 72 116
e 72 125
e 72 126
e 73 150
e 73 179
e 73 215
e 73 282
e 74 75
e 74 106
e 75 106
e 76 77
e 77 105
e 77 150
e 77 282
e 77 305
e 77 307
e 78 188
e 78 197
e 78 225
e 78 264
e 79 80
e 79 171
e 79 205
e 79 207
e 79 219
e 79 222
e 79 292
e 81 83
e 82 83
e 82 290
e 82 291
e 83 84
e 83 115
e 84 115
e 84 310
e 85 86
e 85 87
e 85 115
e 85 147
e 85 258
e 85 317
e 85 318
e 86 116
e 86 119
e 86 125
e 86 126
e 86 258
e 86 314
e 87 147
e 88 89
e 88 92
e 88 296
e 88 298
e 89 93
e 89 293
e 89 294
e 89 298
e 90 91
e 90 206
e 90 294
e 90 299
e 91 206
e 91 294
e 91 298
e 92 93
e 92 207
e 92 293
e 92 296
e 93 293
e 94 148
e 94 149
e 94 179
e 94 186
e 94 276
e 94 277
e 95 100
e 95 171
e 95 172
e 95 173
e 95 174
e 95 175
e 95 190
e 96 100
e 96 101
e 96 102
e 96 171
e 96 175
e 96 190
e 96 191
e 96 192
e 96 193
e 96 218
e 97 98
e 97 202
e 97 203
e 97 217
e 97 218
e 97 219
e 98 189
e 98 202
e 99 281
e 100 101
e 100 175
e 100 190
e 100 216
e 101 102
e 101 103
e 101 216
e 102 103
e 102 104
e 102 192
e 103 104
e 103 220
e 104 192
e 104 220
e 105 226
e 105 270
e 105 305
e 106 207
e 106 208
e 106 214
e 107 108
e 107 179
e 107 278
e 109 144
e 109 145
e 109 300
e 109 304
e 110 134
e 110 196
e 110 250
e 110 284
e 110 286
e 110 287
e 110 288
e 110 312
e 111 112
e 111 113
e 111 130
e 111 132
e 111 141
e 111 257
e 111 303
e 112 113
e 112 130
e 112 134
e 112 135
e 112 137
e 112 180
e 112 212
e 113 129
e 113 137
e 113 138
e 113 139
e 113 143
e 114 116
e 114 125
e 114 310
e 114 315
e 115 118
e 115 133
e 115 147
e 115 209
e 115 224
e 115 285
e 115 295
e 115 310
e 115 318
e 116 120
e 116 310
e 116 312
e 116 314
e 117 122
e 117 313
e 117 314
e 118 123
e 118 128
e 118 285
e 118 318
e 119 124
e 119 258
e 119 313
e 119 314
e 119 317
e 120 127
e 120 283
e 120 312
e 120 314
e 120 316
e 121 124
e 121 311
e 121 314
e 121 316
e 121 317
e 122 311
e 122 313
e 122 314
e 123 128
e 123 285
e 124 256
e 124 311
e 124 313
e 124 317
e 125 126
e 125 315
e 127 128
e 127 283
e 127 316
e 128 283
e 128 285
e 128 316
e 128 318
e 129 137
e 129 142
e 129 143
e 130 132
e 130 141
e 130 212
e 131 132
e 131 133
e 131 136
e 131 209
e 132 136
e 132 141
e 132 212
e 132 302
e 132 303
e 133 135
e 133 136
e 133 209
e 133 284
e 133 285
e 133 286
e 133 287
e 133 288
e 134 135
e 134 180
e 134 181
e 134 196
e 134 286
e 135 136
e 135 137
e 135 286
e 136 137
e 136 302
e 136 304
e 137 142
e 137 304
e 138 139
e 138 140
e 138 143
e 138 300
e 138 301
e 139 140
e 139 257
e 140 255
e 140 257
e 140 301
e 142 143
e 142 145
e 142 304
e 143 300
e 144 146
e 144 300
e 144 301
e 144 302
e 144 304
e 145 300
e 145 304
e 146 255
e 146 301
e 146 302
e 146 303
e 148 149
e 148 186
e 148 187
e 149 179
e 149 186
e 149 187
e 149 238
e 149 249
e 150 282
e 151 156
e 151 212
e 151 213
e 152 153
e 152 154
e 152 155
e 152 211
e 153 154
e 153 211
e 153 214
e 154 155
e 156 212
e 157 158
e 157 162
e 157 163
e 157 232
e 157 233
e 157 254
e 157 271
e 158 272
e 158 307
e 158 308
e 159 161
e 160 164
e 160 305
e 160 308
e 162 163
e 162 231
e 162 309
e 163 229
e 163 230
e 163 232
e 163 270
e 163 305
e 164 308
e 165 166
e 165 167
e 165 169
e 165 170
e 165 171
e 165 218
e 165 226
e 166 168
e 166 226
e 166 236
e 167 170
e 167 171
e 167 222
e 167 226
e 168 189
e 169 170
e 171 174
e 171 190
e 171 217
e 171 218
e 171 219
e 171 222
e 172 173
e 172 175
e 174 175
e 174 217
e 175 217
e 175 218
e 176 177
e 176 310
e 178 215
e 178 249
e 179 215
e 179 238
e 179 277
e 179 278
e 180 181
e 181 196
e 181 227
e 182 183
e 182 204
e 182 241
e 182 244
e 182 262
e 183 204
e 183 241
e 183 267
e 184 185
e 184 260
e 184 267
e 184 269
e 185 245
e 185 246
e 185 260
e 185 263
e 185 269
e 186 187
e 188 197
e 188 290
e 188 291
e 190 191
e 190 216
e 191 192
e 191 193
e 191 216
e 191 221
e 192 193
e 192 194
e 192 220
e 192 221
e 194 220
e 194 221
e 195 254
e 196 227
e 196 228
e 196 312
e 197 201
e 197 275
e 198 199
e 198 200
e 198 201
e 199 200
e 199 201
e 200 201
e 201 275
e 202 203
e 203 205
e 203 219
e 204 265
e 205 207
e 205 219
e 206 207
e 206 293
e 206 299
e 207 208
e 207 209
e 207 296
e 208 209
e 209 295
e 209 296
e 209 297
e 210 291
e 211 214
e 215 238
e 215 249
e 217 218
e 217 219
e 220 221
e 222 226
e 222 259
e 222 261
e 222 289
e 222 292
e 223 224
e 223 225
e 223 268
e 223 295
e 224 225
e 224 295
e 225 264
e 225 268
e 226 270
e 227 228
e 229 230
e 231 309
e 232 233
e 232 235
e 232 236
e 232 270
e 233 234
e 233 235
e 233 236
e 233 271
e 234 236
e 235 236
e 237 238
e 237 239
e 238 239
e 238 249
e 241 244
e 241 260
e 241 267
e 242 243
e 242 244
e 242 262
e 242 266
e 242 268
e 243 244
e 243 259
e 243 268
e 244 259
e 244 260
e 245 246
e 245 259
e 245 260
e 245 263
e 246 263
e 247 248
e 250 251
e 250 252
e 250 253
e 250 283
e 250 287
e 250 312
e 251 252
e 251 253
e 251 285
e 251 287
e 252 253
e 253 283
e 253 285
e 255 257
e 255 301
e 255 303
e 256 311
e 256 313
e 257 303
e 258 317
e 259 260
e 259 261
e 259 263
e 259 264
e 259 268
e 259 289
e 260 267
e 261 268
e 261 292
e 261 295
e 262 264
e 262 265
e 262 266
e 263 264
e 263 269
e 264 265
e 264 266
e 264 268
e 264 269
e 266 268
e 268 295
e 270 305
e 271 272
e 271 273
e 271 274
e 272 274
e 272 281
e 272 306
e 272 307
e 273 274
e 276 277
e 277 278
e 279 281
e 280 281
e 281 282
e 281 306
e 282 306
e 282 307
e 283 285
e 284 286
e 284 288
e 285 287
e 287 288
e 290 291
e 292 295
e 292 297
e 292 298
e 293 294
e 293 299
e 294 298
e 294 299
e 295 297
e 296 297
e 300 301
e 302 303
e 302 304
e 305 307
e 305 308
e 306 307
e 307 308
e 310 312
e 310 315
e 311 313
e 311 314
e 314 316
e 316 317
e 316 318
e 317 318
c k 2
